ampl/hidato1.dat
# solution:
#  6 7 9
#  5 2 8
#  1 4 3
param n := 3;
param puzzle: 1 2 3  := 
  1   6 . 9 
  2   . 2 8 
  3   1 . .
;
