essence_savile_row/hidato1.param
language ESSENCE' 1.0
$ solution:
$  6 7 9
$  5 2 8
$  1 4 3
letting n be 3
letting puzzle : matrix indexed by [int(1..n), int(1..n)] of int(0..n*n) be
    [ 
       [6,0,9],
       [0,2,8],
       [1,0,0]
    ]
